Instance Name : r202
Date : 2022-07-18
Solution
Route 1 : 53
Route 2 : 26 21 72 75 39 67 23 56 4 54 55 25 24 80 12
Route 3 : 27 69 1 50 3 29 76 79 78 81 9 51 20 66 35 34 68 77
Route 4 : 52 62 63 90 10 32 70
Route 5 : 83 45 82 48 47 36 19 11 64 49 46 17 5 60 89
Route 6 : 28 33 65 71 30 31 88 7 18 8 84 86 91 100 37 98 93 59 94
Route 7 : 95 92 42 15 14 38 44 16 61 85 99 96 6 87 57 43 97 13
Route 8 : 40 73 41 22 74 2 58
